NAME: X270-FSMD
COMMENT: Generated by Uchoa, Pecin, Pessoa, Poggi, Subramanian, and Vidal (2013). Modified by Sadykov, Pessoa and Uchoa (2017). Converted to PyVRP's VRPLIB dialect.
TYPE: HFVRP
DIMENSION: 270
VEHICLES: 1345
EDGE_WEIGHT_TYPE: EUC_2D
NODE_COORD_SECTION
1	500	500
2	643	512
3	707	407
4	394	355
5	140	470
6	364	215
7	493	857
8	117	466
9	462	38
10	551	479
11	742	498
12	533	706
13	788	425
14	799	6
15	836	680
16	88	225
17	164	988
18	537	20
19	612	395
20	314	942
21	342	974
22	518	758
23	860	774
24	313	36
25	275	23
26	324	971
27	822	588
28	272	458
29	620	666
30	868	427
31	694	750
32	953	419
33	236	823
34	887	411
35	124	814
36	193	899
37	687	303
38	447	220
39	716	472
40	415	141
41	738	309
42	445	672
43	524	60
44	112	157
45	859	935
46	104	596
47	556	54
48	362	223
49	723	661
50	474	338
51	274	568
52	315	380
53	704	863
54	936	260
55	93	859
56	703	935
57	381	302
58	695	239
59	880	823
60	335	961
61	37	637
62	288	169
63	455	499
64	599	796
65	155	910
66	80	459
67	93	565
68	959	544
69	926	58
70	762	531
71	22	839
72	459	575
73	737	409
74	854	328
75	921	781
76	221	23
77	685	179
78	202	804
79	422	992
80	945	292
81	66	976
82	487	429
83	614	711
84	407	546
85	883	298
86	709	692
87	535	319
88	965	217
89	336	35
90	703	595
91	677	841
92	51	503
93	334	968
94	628	154
95	488	437
96	680	869
97	987	264
98	474	906
99	866	911
100	940	542
101	106	988
102	558	398
103	661	206
104	500	17
105	710	588
106	23	696
107	181	909
108	107	556
109	516	409
110	345	879
111	684	742
112	86	682
113	447	182
114	825	545
115	880	72
116	840	689
117	129	532
118	89	305
119	434	407
120	348	132
121	390	473
122	598	286
123	464	891
124	671	336
125	762	909
126	136	633
127	40	814
128	445	889
129	980	135
130	318	2
131	688	101
132	387	142
133	480	339
134	85	69
135	884	826
136	789	719
137	907	96
138	207	24
139	557	694
140	22	2
141	740	695
142	897	75
143	844	196
144	93	50
145	731	708
146	699	899
147	45	32
148	768	584
149	153	53
150	671	669
151	818	715
152	933	659
153	500	706
154	914	139
155	891	85
156	73	147
157	794	769
158	862	849
159	504	643
160	524	644
161	49	36
162	539	728
163	139	118
164	931	588
165	850	28
166	891	612
167	760	762
168	709	636
169	628	448
170	277	45
171	588	720
172	803	710
173	712	63
174	804	68
175	80	33
176	886	131
177	536	318
178	899	161
179	189	17
180	140	62
181	548	667
182	838	835
183	890	749
184	998	675
185	862	272
186	551	695
187	692	757
188	735	752
189	468	626
190	535	665
191	734	66
192	853	159
193	936	93
194	941	63
195	717	545
196	929	175
197	719	743
198	224	25
199	773	717
200	709	712
201	467	579
202	550	683
203	264	122
204	749	182
205	234	56
206	868	936
207	833	93
208	762	774
209	555	593
210	790	705
211	59	94
212	576	674
213	494	607
214	412	701
215	614	627
216	883	597
217	233	64
218	598	659
219	813	611
220	916	105
221	868	603
222	555	673
223	782	724
224	93	100
225	743	870
226	600	452
227	619	753
228	892	181
229	850	547
230	600	727
231	63	175
232	789	598
233	6	83
234	116	27
235	753	615
236	896	100
237	7	9
238	754	745
239	777	760
240	88	32
241	803	64
242	901	109
243	36	8
244	835	42
245	591	543
246	576	872
247	530	707
248	187	153
249	627	789
250	21	62
251	787	650
252	194	350
253	857	704
254	487	672
255	511	732
256	872	794
257	99	77
258	864	58
259	143	149
260	910	236
261	963	91
262	133	56
263	747	666
264	712	736
265	771	725
266	302	59
267	935	107
268	766	680
269	680	683
270	648	800
DEMAND_SECTION
1	0
2	77
3	91
4	67
5	69
6	68
7	64
8	65
9	83
10	64
11	77
12	87
13	99
14	84
15	74
16	89
17	76
18	68
19	87
20	69
21	97
22	87
23	59
24	82
25	75
26	55
27	95
28	63
29	87
30	72
31	53
32	66
33	95
34	58
35	76
36	66
37	53
38	67
39	56
40	71
41	67
42	52
43	85
44	99
45	62
46	51
47	53
48	63
49	71
50	78
51	71
52	77
53	85
54	82
55	94
56	67
57	54
58	66
59	64
60	94
61	75
62	72
63	66
64	95
65	59
66	68
67	94
68	84
69	94
70	62
71	73
72	66
73	97
74	71
75	62
76	60
77	86
78	99
79	51
80	90
81	72
82	84
83	78
84	81
85	50
86	55
87	56
88	80
89	63
90	52
91	71
92	75
93	71
94	59
95	78
96	89
97	89
98	93
99	74
100	73
101	85
102	68
103	71
104	78
105	90
106	60
107	95
108	75
109	65
110	92
111	79
112	95
113	99
114	75
115	91
116	80
117	91
118	71
119	55
120	97
121	71
122	53
123	99
124	60
125	70
126	99
127	97
128	75
129	54
130	73
131	51
132	84
133	72
134	97
135	60
136	82
137	67
138	57
139	62
140	93
141	97
142	94
143	91
144	56
145	71
146	92
147	92
148	78
149	100
150	93
151	99
152	95
153	99
154	57
155	78
156	100
157	69
158	53
159	80
160	80
161	76
162	99
163	58
164	68
165	51
166	64
167	97
168	55
169	100
170	52
171	99
172	66
173	74
174	68
175	97
176	100
177	59
178	72
179	63
180	74
181	72
182	85
183	93
184	100
185	66
186	53
187	93
188	95
189	61
190	89
191	86
192	80
193	74
194	56
195	78
196	78
197	66
198	85
199	89
200	74
201	57
202	84
203	88
204	97
205	93
206	80
207	53
208	51
209	85
210	55
211	89
212	72
213	53
214	60
215	97
216	89
217	94
218	81
219	76
220	98
221	94
222	68
223	71
224	52
225	69
226	87
227	93
228	64
229	64
230	71
231	94
232	66
233	60
234	92
235	61
236	86
237	100
238	93
239	70
240	88
241	66
242	81
243	51
244	73
245	91
246	86
247	68
248	89
249	52
250	79
251	60
252	60
253	60
254	55
255	95
256	73
257	80
258	79
259	86
260	79
261	89
262	88
263	70
264	56
265	80
266	64
267	51
268	85
269	88
270	70
CAPACITY_SECTION
1	197
2	197
3	197
4	197
5	197
6	197
7	197
8	197
9	197
10	197
11	197
12	197
13	197
14	197
15	197
16	197
17	197
18	197
19	197
20	197
21	197
22	197
23	197
24	197
25	197
26	197
27	197
28	197
29	197
30	197
31	197
32	197
33	197
34	197
35	197
36	197
37	197
38	197
39	197
40	197
41	197
42	197
43	197
44	197
45	197
46	197
47	197
48	197
49	197
50	197
51	197
52	197
53	197
54	197
55	197
56	197
57	197
58	197
59	197
60	197
61	197
62	197
63	197
64	197
65	197
66	197
67	197
68	197
69	197
70	197
71	197
72	197
73	197
74	197
75	197
76	197
77	197
78	197
79	197
80	197
81	197
82	197
83	197
84	197
85	197
86	197
87	197
88	197
89	197
90	197
91	197
92	197
93	197
94	197
95	197
96	197
97	197
98	197
99	197
100	197
101	197
102	197
103	197
104	197
105	197
106	197
107	197
108	197
109	197
110	197
111	197
112	197
113	197
114	197
115	197
116	197
117	197
118	197
119	197
120	197
121	197
122	197
123	197
124	197
125	197
126	197
127	197
128	197
129	197
130	197
131	197
132	197
133	197
134	197
135	197
136	197
137	197
138	197
139	197
140	197
141	197
142	197
143	197
144	197
145	197
146	197
147	197
148	197
149	197
150	197
151	197
152	197
153	197
154	197
155	197
156	197
157	197
158	197
159	197
160	197
161	197
162	197
163	197
164	197
165	197
166	197
167	197
168	197
169	197
170	197
171	197
172	197
173	197
174	197
175	197
176	197
177	197
178	197
179	197
180	197
181	197
182	197
183	197
184	197
185	197
186	197
187	197
188	197
189	197
190	197
191	197
192	197
193	197
194	197
195	197
196	197
197	197
198	197
199	197
200	197
201	197
202	197
203	197
204	197
205	197
206	197
207	197
208	197
209	197
210	197
211	197
212	197
213	197
214	197
215	197
216	197
217	197
218	197
219	197
220	197
221	197
222	197
223	197
224	197
225	197
226	197
227	197
228	197
229	197
230	197
231	197
232	197
233	197
234	197
235	197
236	197
237	197
238	197
239	197
240	197
241	197
242	197
243	197
244	197
245	197
246	197
247	197
248	197
249	197
250	197
251	197
252	197
253	197
254	197
255	197
256	197
257	197
258	197
259	197
260	197
261	197
262	197
263	197
264	197
265	197
266	197
267	197
268	197
269	197
270	308
271	308
272	308
273	308
274	308
275	308
276	308
277	308
278	308
279	308
280	308
281	308
282	308
283	308
284	308
285	308
286	308
287	308
288	308
289	308
290	308
291	308
292	308
293	308
294	308
295	308
296	308
297	308
298	308
299	308
300	308
301	308
302	308
303	308
304	308
305	308
306	308
307	308
308	308
309	308
310	308
311	308
312	308
313	308
314	308
315	308
316	308
317	308
318	308
319	308
320	308
321	308
322	308
323	308
324	308
325	308
326	308
327	308
328	308
329	308
330	308
331	308
332	308
333	308
334	308
335	308
336	308
337	308
338	308
339	308
340	308
341	308
342	308
343	308
344	308
345	308
346	308
347	308
348	308
349	308
350	308
351	308
352	308
353	308
354	308
355	308
356	308
357	308
358	308
359	308
360	308
361	308
362	308
363	308
364	308
365	308
366	308
367	308
368	308
369	308
370	308
371	308
372	308
373	308
374	308
375	308
376	308
377	308
378	308
379	308
380	308
381	308
382	308
383	308
384	308
385	308
386	308
387	308
388	308
389	308
390	308
391	308
392	308
393	308
394	308
395	308
396	308
397	308
398	308
399	308
400	308
401	308
402	308
403	308
404	308
405	308
406	308
407	308
408	308
409	308
410	308
411	308
412	308
413	308
414	308
415	308
416	308
417	308
418	308
419	308
420	308
421	308
422	308
423	308
424	308
425	308
426	308
427	308
428	308
429	308
430	308
431	308
432	308
433	308
434	308
435	308
436	308
437	308
438	308
439	308
440	308
441	308
442	308
443	308
444	308
445	308
446	308
447	308
448	308
449	308
450	308
451	308
452	308
453	308
454	308
455	308
456	308
457	308
458	308
459	308
460	308
461	308
462	308
463	308
464	308
465	308
466	308
467	308
468	308
469	308
470	308
471	308
472	308
473	308
474	308
475	308
476	308
477	308
478	308
479	308
480	308
481	308
482	308
483	308
484	308
485	308
486	308
487	308
488	308
489	308
490	308
491	308
492	308
493	308
494	308
495	308
496	308
497	308
498	308
499	308
500	308
501	308
502	308
503	308
504	308
505	308
506	308
507	308
508	308
509	308
510	308
511	308
512	308
513	308
514	308
515	308
516	308
517	308
518	308
519	308
520	308
521	308
522	308
523	308
524	308
525	308
526	308
527	308
528	308
529	308
530	308
531	308
532	308
533	308
534	308
535	308
536	308
537	308
538	308
539	483
540	483
541	483
542	483
543	483
544	483
545	483
546	483
547	483
548	483
549	483
550	483
551	483
552	483
553	483
554	483
555	483
556	483
557	483
558	483
559	483
560	483
561	483
562	483
563	483
564	483
565	483
566	483
567	483
568	483
569	483
570	483
571	483
572	483
573	483
574	483
575	483
576	483
577	483
578	483
579	483
580	483
581	483
582	483
583	483
584	483
585	483
586	483
587	483
588	483
589	483
590	483
591	483
592	483
593	483
594	483
595	483
596	483
597	483
598	483
599	483
600	483
601	483
602	483
603	483
604	483
605	483
606	483
607	483
608	483
609	483
610	483
611	483
612	483
613	483
614	483
615	483
616	483
617	483
618	483
619	483
620	483
621	483
622	483
623	483
624	483
625	483
626	483
627	483
628	483
629	483
630	483
631	483
632	483
633	483
634	483
635	483
636	483
637	483
638	483
639	483
640	483
641	483
642	483
643	483
644	483
645	483
646	483
647	483
648	483
649	483
650	483
651	483
652	483
653	483
654	483
655	483
656	483
657	483
658	483
659	483
660	483
661	483
662	483
663	483
664	483
665	483
666	483
667	483
668	483
669	483
670	483
671	483
672	483
673	483
674	483
675	483
676	483
677	483
678	483
679	483
680	483
681	483
682	483
683	483
684	483
685	483
686	483
687	483
688	483
689	483
690	483
691	483
692	483
693	483
694	483
695	483
696	483
697	483
698	483
699	483
700	483
701	483
702	483
703	483
704	483
705	483
706	483
707	483
708	483
709	483
710	483
711	483
712	483
713	483
714	483
715	483
716	483
717	483
718	483
719	483
720	483
721	483
722	483
723	483
724	483
725	483
726	483
727	483
728	483
729	483
730	483
731	483
732	483
733	483
734	483
735	483
736	483
737	483
738	483
739	483
740	483
741	483
742	483
743	483
744	483
745	483
746	483
747	483
748	483
749	483
750	483
751	483
752	483
753	483
754	483
755	483
756	483
757	483
758	483
759	483
760	483
761	483
762	483
763	483
764	483
765	483
766	483
767	483
768	483
769	483
770	483
771	483
772	483
773	483
774	483
775	483
776	483
777	483
778	483
779	483
780	483
781	483
782	483
783	483
784	483
785	483
786	483
787	483
788	483
789	483
790	483
791	483
792	483
793	483
794	483
795	483
796	483
797	483
798	483
799	483
800	483
801	483
802	483
803	483
804	483
805	483
806	483
807	483
808	755
809	755
810	755
811	755
812	755
813	755
814	755
815	755
816	755
817	755
818	755
819	755
820	755
821	755
822	755
823	755
824	755
825	755
826	755
827	755
828	755
829	755
830	755
831	755
832	755
833	755
834	755
835	755
836	755
837	755
838	755
839	755
840	755
841	755
842	755
843	755
844	755
845	755
846	755
847	755
848	755
849	755
850	755
851	755
852	755
853	755
854	755
855	755
856	755
857	755
858	755
859	755
860	755
861	755
862	755
863	755
864	755
865	755
866	755
867	755
868	755
869	755
870	755
871	755
872	755
873	755
874	755
875	755
876	755
877	755
878	755
879	755
880	755
881	755
882	755
883	755
884	755
885	755
886	755
887	755
888	755
889	755
890	755
891	755
892	755
893	755
894	755
895	755
896	755
897	755
898	755
899	755
900	755
901	755
902	755
903	755
904	755
905	755
906	755
907	755
908	755
909	755
910	755
911	755
912	755
913	755
914	755
915	755
916	755
917	755
918	755
919	755
920	755
921	755
922	755
923	755
924	755
925	755
926	755
927	755
928	755
929	755
930	755
931	755
932	755
933	755
934	755
935	755
936	755
937	755
938	755
939	755
940	755
941	755
942	755
943	755
944	755
945	755
946	755
947	755
948	755
949	755
950	755
951	755
952	755
953	755
954	755
955	755
956	755
957	755
958	755
959	755
960	755
961	755
962	755
963	755
964	755
965	755
966	755
967	755
968	755
969	755
970	755
971	755
972	755
973	755
974	755
975	755
976	755
977	755
978	755
979	755
980	755
981	755
982	755
983	755
984	755
985	755
986	755
987	755
988	755
989	755
990	755
991	755
992	755
993	755
994	755
995	755
996	755
997	755
998	755
999	755
1000	755
1001	755
1002	755
1003	755
1004	755
1005	755
1006	755
1007	755
1008	755
1009	755
1010	755
1011	755
1012	755
1013	755
1014	755
1015	755
1016	755
1017	755
1018	755
1019	755
1020	755
1021	755
1022	755
1023	755
1024	755
1025	755
1026	755
1027	755
1028	755
1029	755
1030	755
1031	755
1032	755
1033	755
1034	755
1035	755
1036	755
1037	755
1038	755
1039	755
1040	755
1041	755
1042	755
1043	755
1044	755
1045	755
1046	755
1047	755
1048	755
1049	755
1050	755
1051	755
1052	755
1053	755
1054	755
1055	755
1056	755
1057	755
1058	755
1059	755
1060	755
1061	755
1062	755
1063	755
1064	755
1065	755
1066	755
1067	755
1068	755
1069	755
1070	755
1071	755
1072	755
1073	755
1074	755
1075	755
1076	755
1077	1182
1078	1182
1079	1182
1080	1182
1081	1182
1082	1182
1083	1182
1084	1182
1085	1182
1086	1182
1087	1182
1088	1182
1089	1182
1090	1182
1091	1182
1092	1182
1093	1182
1094	1182
1095	1182
1096	1182
1097	1182
1098	1182
1099	1182
1100	1182
1101	1182
1102	1182
1103	1182
1104	1182
1105	1182
1106	1182
1107	1182
1108	1182
1109	1182
1110	1182
1111	1182
1112	1182
1113	1182
1114	1182
1115	1182
1116	1182
1117	1182
1118	1182
1119	1182
1120	1182
1121	1182
1122	1182
1123	1182
1124	1182
1125	1182
1126	1182
1127	1182
1128	1182
1129	1182
1130	1182
1131	1182
1132	1182
1133	1182
1134	1182
1135	1182
1136	1182
1137	1182
1138	1182
1139	1182
1140	1182
1141	1182
1142	1182
1143	1182
1144	1182
1145	1182
1146	1182
1147	1182
1148	1182
1149	1182
1150	1182
1151	1182
1152	1182
1153	1182
1154	1182
1155	1182
1156	1182
1157	1182
1158	1182
1159	1182
1160	1182
1161	1182
1162	1182
1163	1182
1164	1182
1165	1182
1166	1182
1167	1182
1168	1182
1169	1182
1170	1182
1171	1182
1172	1182
1173	1182
1174	1182
1175	1182
1176	1182
1177	1182
1178	1182
1179	1182
1180	1182
1181	1182
1182	1182
1183	1182
1184	1182
1185	1182
1186	1182
1187	1182
1188	1182
1189	1182
1190	1182
1191	1182
1192	1182
1193	1182
1194	1182
1195	1182
1196	1182
1197	1182
1198	1182
1199	1182
1200	1182
1201	1182
1202	1182
1203	1182
1204	1182
1205	1182
1206	1182
1207	1182
1208	1182
1209	1182
1210	1182
1211	1182
1212	1182
1213	1182
1214	1182
1215	1182
1216	1182
1217	1182
1218	1182
1219	1182
1220	1182
1221	1182
1222	1182
1223	1182
1224	1182
1225	1182
1226	1182
1227	1182
1228	1182
1229	1182
1230	1182
1231	1182
1232	1182
1233	1182
1234	1182
1235	1182
1236	1182
1237	1182
1238	1182
1239	1182
1240	1182
1241	1182
1242	1182
1243	1182
1244	1182
1245	1182
1246	1182
1247	1182
1248	1182
1249	1182
1250	1182
1251	1182
1252	1182
1253	1182
1254	1182
1255	1182
1256	1182
1257	1182
1258	1182
1259	1182
1260	1182
1261	1182
1262	1182
1263	1182
1264	1182
1265	1182
1266	1182
1267	1182
1268	1182
1269	1182
1270	1182
1271	1182
1272	1182
1273	1182
1274	1182
1275	1182
1276	1182
1277	1182
1278	1182
1279	1182
1280	1182
1281	1182
1282	1182
1283	1182
1284	1182
1285	1182
1286	1182
1287	1182
1288	1182
1289	1182
1290	1182
1291	1182
1292	1182
1293	1182
1294	1182
1295	1182
1296	1182
1297	1182
1298	1182
1299	1182
1300	1182
1301	1182
1302	1182
1303	1182
1304	1182
1305	1182
1306	1182
1307	1182
1308	1182
1309	1182
1310	1182
1311	1182
1312	1182
1313	1182
1314	1182
1315	1182
1316	1182
1317	1182
1318	1182
1319	1182
1320	1182
1321	1182
1322	1182
1323	1182
1324	1182
1325	1182
1326	1182
1327	1182
1328	1182
1329	1182
1330	1182
1331	1182
1332	1182
1333	1182
1334	1182
1335	1182
1336	1182
1337	1182
1338	1182
1339	1182
1340	1182
1341	1182
1342	1182
1343	1182
1344	1182
1345	1182
VEHICLES_UNIT_DISTANCE_COST_SECTION
1	50
2	50
3	50
4	50
5	50
6	50
7	50
8	50
9	50
10	50
11	50
12	50
13	50
14	50
15	50
16	50
17	50
18	50
19	50
20	50
21	50
22	50
23	50
24	50
25	50
26	50
27	50
28	50
29	50
30	50
31	50
32	50
33	50
34	50
35	50
36	50
37	50
38	50
39	50
40	50
41	50
42	50
43	50
44	50
45	50
46	50
47	50
48	50
49	50
50	50
51	50
52	50
53	50
54	50
55	50
56	50
57	50
58	50
59	50
60	50
61	50
62	50
63	50
64	50
65	50
66	50
67	50
68	50
69	50
70	50
71	50
72	50
73	50
74	50
75	50
76	50
77	50
78	50
79	50
80	50
81	50
82	50
83	50
84	50
85	50
86	50
87	50
88	50
89	50
90	50
91	50
92	50
93	50
94	50
95	50
96	50
97	50
98	50
99	50
100	50
101	50
102	50
103	50
104	50
105	50
106	50
107	50
108	50
109	50
110	50
111	50
112	50
113	50
114	50
115	50
116	50
117	50
118	50
119	50
120	50
121	50
122	50
123	50
124	50
125	50
126	50
127	50
128	50
129	50
130	50
131	50
132	50
133	50
134	50
135	50
136	50
137	50
138	50
139	50
140	50
141	50
142	50
143	50
144	50
145	50
146	50
147	50
148	50
149	50
150	50
151	50
152	50
153	50
154	50
155	50
156	50
157	50
158	50
159	50
160	50
161	50
162	50
163	50
164	50
165	50
166	50
167	50
168	50
169	50
170	50
171	50
172	50
173	50
174	50
175	50
176	50
177	50
178	50
179	50
180	50
181	50
182	50
183	50
184	50
185	50
186	50
187	50
188	50
189	50
190	50
191	50
192	50
193	50
194	50
195	50
196	50
197	50
198	50
199	50
200	50
201	50
202	50
203	50
204	50
205	50
206	50
207	50
208	50
209	50
210	50
211	50
212	50
213	50
214	50
215	50
216	50
217	50
218	50
219	50
220	50
221	50
222	50
223	50
224	50
225	50
226	50
227	50
228	50
229	50
230	50
231	50
232	50
233	50
234	50
235	50
236	50
237	50
238	50
239	50
240	50
241	50
242	50
243	50
244	50
245	50
246	50
247	50
248	50
249	50
250	50
251	50
252	50
253	50
254	50
255	50
256	50
257	50
258	50
259	50
260	50
261	50
262	50
263	50
264	50
265	50
266	50
267	50
268	50
269	50
270	71
271	71
272	71
273	71
274	71
275	71
276	71
277	71
278	71
279	71
280	71
281	71
282	71
283	71
284	71
285	71
286	71
287	71
288	71
289	71
290	71
291	71
292	71
293	71
294	71
295	71
296	71
297	71
298	71
299	71
300	71
301	71
302	71
303	71
304	71
305	71
306	71
307	71
308	71
309	71
310	71
311	71
312	71
313	71
314	71
315	71
316	71
317	71
318	71
319	71
320	71
321	71
322	71
323	71
324	71
325	71
326	71
327	71
328	71
329	71
330	71
331	71
332	71
333	71
334	71
335	71
336	71
337	71
338	71
339	71
340	71
341	71
342	71
343	71
344	71
345	71
346	71
347	71
348	71
349	71
350	71
351	71
352	71
353	71
354	71
355	71
356	71
357	71
358	71
359	71
360	71
361	71
362	71
363	71
364	71
365	71
366	71
367	71
368	71
369	71
370	71
371	71
372	71
373	71
374	71
375	71
376	71
377	71
378	71
379	71
380	71
381	71
382	71
383	71
384	71
385	71
386	71
387	71
388	71
389	71
390	71
391	71
392	71
393	71
394	71
395	71
396	71
397	71
398	71
399	71
400	71
401	71
402	71
403	71
404	71
405	71
406	71
407	71
408	71
409	71
410	71
411	71
412	71
413	71
414	71
415	71
416	71
417	71
418	71
419	71
420	71
421	71
422	71
423	71
424	71
425	71
426	71
427	71
428	71
429	71
430	71
431	71
432	71
433	71
434	71
435	71
436	71
437	71
438	71
439	71
440	71
441	71
442	71
443	71
444	71
445	71
446	71
447	71
448	71
449	71
450	71
451	71
452	71
453	71
454	71
455	71
456	71
457	71
458	71
459	71
460	71
461	71
462	71
463	71
464	71
465	71
466	71
467	71
468	71
469	71
470	71
471	71
472	71
473	71
474	71
475	71
476	71
477	71
478	71
479	71
480	71
481	71
482	71
483	71
484	71
485	71
486	71
487	71
488	71
489	71
490	71
491	71
492	71
493	71
494	71
495	71
496	71
497	71
498	71
499	71
500	71
501	71
502	71
503	71
504	71
505	71
506	71
507	71
508	71
509	71
510	71
511	71
512	71
513	71
514	71
515	71
516	71
517	71
518	71
519	71
520	71
521	71
522	71
523	71
524	71
525	71
526	71
527	71
528	71
529	71
530	71
531	71
532	71
533	71
534	71
535	71
536	71
537	71
538	71
539	100
540	100
541	100
542	100
543	100
544	100
545	100
546	100
547	100
548	100
549	100
550	100
551	100
552	100
553	100
554	100
555	100
556	100
557	100
558	100
559	100
560	100
561	100
562	100
563	100
564	100
565	100
566	100
567	100
568	100
569	100
570	100
571	100
572	100
573	100
574	100
575	100
576	100
577	100
578	100
579	100
580	100
581	100
582	100
583	100
584	100
585	100
586	100
587	100
588	100
589	100
590	100
591	100
592	100
593	100
594	100
595	100
596	100
597	100
598	100
599	100
600	100
601	100
602	100
603	100
604	100
605	100
606	100
607	100
608	100
609	100
610	100
611	100
612	100
613	100
614	100
615	100
616	100
617	100
618	100
619	100
620	100
621	100
622	100
623	100
624	100
625	100
626	100
627	100
628	100
629	100
630	100
631	100
632	100
633	100
634	100
635	100
636	100
637	100
638	100
639	100
640	100
641	100
642	100
643	100
644	100
645	100
646	100
647	100
648	100
649	100
650	100
651	100
652	100
653	100
654	100
655	100
656	100
657	100
658	100
659	100
660	100
661	100
662	100
663	100
664	100
665	100
666	100
667	100
668	100
669	100
670	100
671	100
672	100
673	100
674	100
675	100
676	100
677	100
678	100
679	100
680	100
681	100
682	100
683	100
684	100
685	100
686	100
687	100
688	100
689	100
690	100
691	100
692	100
693	100
694	100
695	100
696	100
697	100
698	100
699	100
700	100
701	100
702	100
703	100
704	100
705	100
706	100
707	100
708	100
709	100
710	100
711	100
712	100
713	100
714	100
715	100
716	100
717	100
718	100
719	100
720	100
721	100
722	100
723	100
724	100
725	100
726	100
727	100
728	100
729	100
730	100
731	100
732	100
733	100
734	100
735	100
736	100
737	100
738	100
739	100
740	100
741	100
742	100
743	100
744	100
745	100
746	100
747	100
748	100
749	100
750	100
751	100
752	100
753	100
754	100
755	100
756	100
757	100
758	100
759	100
760	100
761	100
762	100
763	100
764	100
765	100
766	100
767	100
768	100
769	100
770	100
771	100
772	100
773	100
774	100
775	100
776	100
777	100
778	100
779	100
780	100
781	100
782	100
783	100
784	100
785	100
786	100
787	100
788	100
789	100
790	100
791	100
792	100
793	100
794	100
795	100
796	100
797	100
798	100
799	100
800	100
801	100
802	100
803	100
804	100
805	100
806	100
807	100
808	138
809	138
810	138
811	138
812	138
813	138
814	138
815	138
816	138
817	138
818	138
819	138
820	138
821	138
822	138
823	138
824	138
825	138
826	138
827	138
828	138
829	138
830	138
831	138
832	138
833	138
834	138
835	138
836	138
837	138
838	138
839	138
840	138
841	138
842	138
843	138
844	138
845	138
846	138
847	138
848	138
849	138
850	138
851	138
852	138
853	138
854	138
855	138
856	138
857	138
858	138
859	138
860	138
861	138
862	138
863	138
864	138
865	138
866	138
867	138
868	138
869	138
870	138
871	138
872	138
873	138
874	138
875	138
876	138
877	138
878	138
879	138
880	138
881	138
882	138
883	138
884	138
885	138
886	138
887	138
888	138
889	138
890	138
891	138
892	138
893	138
894	138
895	138
896	138
897	138
898	138
899	138
900	138
901	138
902	138
903	138
904	138
905	138
906	138
907	138
908	138
909	138
910	138
911	138
912	138
913	138
914	138
915	138
916	138
917	138
918	138
919	138
920	138
921	138
922	138
923	138
924	138
925	138
926	138
927	138
928	138
929	138
930	138
931	138
932	138
933	138
934	138
935	138
936	138
937	138
938	138
939	138
940	138
941	138
942	138
943	138
944	138
945	138
946	138
947	138
948	138
949	138
950	138
951	138
952	138
953	138
954	138
955	138
956	138
957	138
958	138
959	138
960	138
961	138
962	138
963	138
964	138
965	138
966	138
967	138
968	138
969	138
970	138
971	138
972	138
973	138
974	138
975	138
976	138
977	138
978	138
979	138
980	138
981	138
982	138
983	138
984	138
985	138
986	138
987	138
988	138
989	138
990	138
991	138
992	138
993	138
994	138
995	138
996	138
997	138
998	138
999	138
1000	138
1001	138
1002	138
1003	138
1004	138
1005	138
1006	138
1007	138
1008	138
1009	138
1010	138
1011	138
1012	138
1013	138
1014	138
1015	138
1016	138
1017	138
1018	138
1019	138
1020	138
1021	138
1022	138
1023	138
1024	138
1025	138
1026	138
1027	138
1028	138
1029	138
1030	138
1031	138
1032	138
1033	138
1034	138
1035	138
1036	138
1037	138
1038	138
1039	138
1040	138
1041	138
1042	138
1043	138
1044	138
1045	138
1046	138
1047	138
1048	138
1049	138
1050	138
1051	138
1052	138
1053	138
1054	138
1055	138
1056	138
1057	138
1058	138
1059	138
1060	138
1061	138
1062	138
1063	138
1064	138
1065	138
1066	138
1067	138
1068	138
1069	138
1070	138
1071	138
1072	138
1073	138
1074	138
1075	138
1076	138
1077	195
1078	195
1079	195
1080	195
1081	195
1082	195
1083	195
1084	195
1085	195
1086	195
1087	195
1088	195
1089	195
1090	195
1091	195
1092	195
1093	195
1094	195
1095	195
1096	195
1097	195
1098	195
1099	195
1100	195
1101	195
1102	195
1103	195
1104	195
1105	195
1106	195
1107	195
1108	195
1109	195
1110	195
1111	195
1112	195
1113	195
1114	195
1115	195
1116	195
1117	195
1118	195
1119	195
1120	195
1121	195
1122	195
1123	195
1124	195
1125	195
1126	195
1127	195
1128	195
1129	195
1130	195
1131	195
1132	195
1133	195
1134	195
1135	195
1136	195
1137	195
1138	195
1139	195
1140	195
1141	195
1142	195
1143	195
1144	195
1145	195
1146	195
1147	195
1148	195
1149	195
1150	195
1151	195
1152	195
1153	195
1154	195
1155	195
1156	195
1157	195
1158	195
1159	195
1160	195
1161	195
1162	195
1163	195
1164	195
1165	195
1166	195
1167	195
1168	195
1169	195
1170	195
1171	195
1172	195
1173	195
1174	195
1175	195
1176	195
1177	195
1178	195
1179	195
1180	195
1181	195
1182	195
1183	195
1184	195
1185	195
1186	195
1187	195
1188	195
1189	195
1190	195
1191	195
1192	195
1193	195
1194	195
1195	195
1196	195
1197	195
1198	195
1199	195
1200	195
1201	195
1202	195
1203	195
1204	195
1205	195
1206	195
1207	195
1208	195
1209	195
1210	195
1211	195
1212	195
1213	195
1214	195
1215	195
1216	195
1217	195
1218	195
1219	195
1220	195
1221	195
1222	195
1223	195
1224	195
1225	195
1226	195
1227	195
1228	195
1229	195
1230	195
1231	195
1232	195
1233	195
1234	195
1235	195
1236	195
1237	195
1238	195
1239	195
1240	195
1241	195
1242	195
1243	195
1244	195
1245	195
1246	195
1247	195
1248	195
1249	195
1250	195
1251	195
1252	195
1253	195
1254	195
1255	195
1256	195
1257	195
1258	195
1259	195
1260	195
1261	195
1262	195
1263	195
1264	195
1265	195
1266	195
1267	195
1268	195
1269	195
1270	195
1271	195
1272	195
1273	195
1274	195
1275	195
1276	195
1277	195
1278	195
1279	195
1280	195
1281	195
1282	195
1283	195
1284	195
1285	195
1286	195
1287	195
1288	195
1289	195
1290	195
1291	195
1292	195
1293	195
1294	195
1295	195
1296	195
1297	195
1298	195
1299	195
1300	195
1301	195
1302	195
1303	195
1304	195
1305	195
1306	195
1307	195
1308	195
1309	195
1310	195
1311	195
1312	195
1313	195
1314	195
1315	195
1316	195
1317	195
1318	195
1319	195
1320	195
1321	195
1322	195
1323	195
1324	195
1325	195
1326	195
1327	195
1328	195
1329	195
1330	195
1331	195
1332	195
1333	195
1334	195
1335	195
1336	195
1337	195
1338	195
1339	195
1340	195
1341	195
1342	195
1343	195
1344	195
1345	195
DEPOT_SECTION
1
EOF
